<?xml version="1.0" encoding="UTF-8"?><osil xmlns="os.optimizationservices.org" xmlns:xsi="http://www.w3.org/2001/XMLSchema-instance" xsi:schemaLocation="os.optimizationservices.org http://www.optimizationservices.org/schemas/2.0/OSiL.xsd"><instanceHeader><name>nvs15</name></instanceHeader><instanceData><variables numberOfVariables="3"><var name="i1" type="I" ub="200"/><var name="i2" type="I" ub="200"/><var name="i3" type="I" ub="200"/></variables><objectives><obj maxOrMin="min" constant="9" name="defObj_objvar" numberOfObjCoef="3"><coef idx="0">-8</coef><coef idx="1">-6</coef><coef idx="2">-4</coef></obj></objectives><constraints numberOfConstraints="1"><con name="e1" lb="-3"/></constraints><linearConstraintCoefficients numberOfValues="3"><start><el>0</el><el>3</el></start><colIdx><el mult="3" incr="1">0</el></colIdx><value><el mult="2">-1</el><el>-2</el></value></linearConstraintCoefficients><quadraticCoefficients numberOfQuadraticTerms="5"><qTerm idx="-1" idxOne="0" idxTwo="0" coef="2"/><qTerm idx="-1" idxOne="0" idxTwo="1" coef="2"/><qTerm idx="-1" idxOne="0" idxTwo="2" coef="2"/><qTerm idx="-1" idxOne="1" idxTwo="1" coef="2"/><qTerm idx="-1" idxOne="2" idxTwo="2" coef="1"/></quadraticCoefficients></instanceData></osil>